/* Objective function */
max: +Es,3 +Es,1 +Es,6 +Es,5 +Es,2;

/* Constraints */
+Es,1 +E4,1 -E1,6 -E1,2 -E1,d = 0;
+Es,2 +E3,2 +E1,2 +E5,2 -E2,d = 0;
+Es,3 -E3,4 -E3,6 -E3,5 -E3,2 = 0;
+E3,4 -E4,1 -E4,6 -E4,5 = 0;
+Es,5 +E3,5 +E4,5 +E6,5 -E5,2 -E5,d = 0;
+Es,6 +E3,6 +E4,6 +E1,6 -E6,5 = 0;

/* Variable bounds */
Es,3 <= 6;
Es,1 <= 17;
Es,6 <= 27;
Es,5 <= 28;
Es,2 <= 15;
E3,4 <= 25;
E3,6 <= 25;
E3,5 <= 24;
E3,2 <= 10;
E4,1 <= 26;
E4,6 <= 5;
E4,5 <= 17;
E1,6 <= 18;
E1,2 <= 11;
E6,5 <= 24;
E5,2 <= 9;
E2,d <= 29;
E1,d <= 19;
E5,d <= 20;
